p cnf 100 20
x 2 -3 -4 6 7 9 11 -12 -13 15 18 19 20 -21 22 25 26 28 29 30 -32 -35 -36 40 -41 43 -44 -46 47 -48 50 -51 54 -55 -62 -64 -65 -66 67 74 76 -77 -78 79 -81 -82 83 -85 88 90 -91 92 98 99 0
x 1 -3 4 7 -8 12 -13 -14 15 -17 18 19 23 24 26 30 -32 34 37 -39 40 -41 -45 46 -49 -52 -56 60 -63 64 72 76 77 -80 85 86 87 88 -89 -91 -92 -94 98 -100 0
x -1 2 -3 -5 -6 8 -13 -16 -18 20 -22 23 -24 -25 -26 29 -30 31 -36 -37 39 42 -45 46 -47 -50 52 -55 57 58 -61 -62 -63 64 -67 68 71 -73 -74 -75 77 79 82 90 92 95 -96 -98 100 0
x -1 -4 7 10 12 -13 -15 -16 -18 20 -21 -23 -24 26 -27 28 -29 32 -36 37 38 -40 -41 42 43 -44 45 -46 -47 -48 -49 51 53 -54 -56 -57 58 59 -61 -64 65 70 -71 74 -78 80 82 83 86 89 96 97 -100 0
x -3 4 7 10 -12 13 -16 -18 19 -20 23 24 -26 28 -29 -30 34 35 37 38 39 -40 41 -43 48 -49 51 -52 -55 57 58 59 -60 -64 66 -67 -68 -69 -71 -76 -77 80 -81 82 -83 84 85 -88 -90 -91 -93 95 -99 0
x 2 5 -7 -8 -9 -16 17 19 -20 -21 26 28 -29 31 32 -33 34 -35 -37 43 47 48 -49 50 51 -55 56 -58 60 61 -62 -64 68 71 72 75 77 -78 79 -81 -82 -86 88 92 96 100 0
x 3 4 6 -7 -10 -11 12 -14 15 18 -19 -21 23 -25 29 36 47 -52 53 54 -59 -62 65 67 -69 70 73 -74 76 -77 80 -82 83 85 -86 87 88 -89 90 -94 96 -99 -100 0
x -4 -8 -9 12 -13 14 -16 -18 22 -23 24 25 -26 -27 29 31 -32 33 -35 -39 -41 -43 44 -45 -46 47 48 -50 -52 53 -57 -58 60 61 -67 -69 -70 -71 -81 82 83 90 92 93 -94 -97 100 0
x 1 -2 4 -7 9 11 -12 14 15 -16 -18 -19 20 -22 25 28 33 34 -35 38 40 43 -45 -46 -47 -50 53 -54 55 57 -62 -64 66 -68 -71 -72 74 -75 79 81 82 83 -86 -87 90 92 -93 95 -97 -98 99 0
x -1 -2 -3 4 -5 12 -13 -15 20 -23 35 -40 -41 42 -43 46 47 48 50 51 53 56 -60 61 63 65 69 71 -73 -74 75 76 82 -83 -88 -90 91 -93 95 96 97 -98 -99 0
x -1 2 5 -6 10 12 -13 -15 17 18 -19 21 -23 -25 26 -30 -35 38 39 -42 -43 -48 49 50 -52 -53 -54 -55 56 57 60 -61 -62 63 64 -68 -72 75 76 77 78 79 -82 86 90 -91 92 -93 -94 -95 -96 99 0
x -2 4 5 -8 11 12 13 14 16 17 23 24 27 28 29 -33 34 -38 41 44 -45 -47 48 50 -51 -57 58 59 -62 -63 -64 67 -71 72 -73 74 -79 -80 -81 82 -83 85 86 88 -90 92 94 95 96 0
x -1 -7 9 10 12 -15 16 -19 -21 -22 24 -25 27 28 29 -30 31 -32 34 36 -39 40 -42 -44 -45 -49 52 -56 -57 -63 -69 -70 -71 -72 77 79 82 83 -85 86 -87 88 89 91 92 -93 96 -97 0
x -2 -3 5 6 8 9 11 13 18 19 -20 -22 -23 24 -25 -26 -29 30 -32 -36 37 39 40 -41 42 43 -46 -47 -53 55 -56 57 65 -66 -67 68 -69 73 -74 -77 78 -80 83 -85 -86 89 -94 95 -96 98 0
x 2 -3 5 7 9 10 14 15 -20 21 -24 26 27 28 -30 -31 -32 -34 38 -41 -42 -48 52 55 56 -58 -59 60 62 -63 64 67 68 -69 -70 -73 75 -77 -78 -79 -84 -86 87 -89 -96 -99 0
x 3 -5 -8 11 12 -14 -15 -16 -17 19 20 -22 -24 26 -31 -33 -34 -35 37 -38 -39 40 -41 -42 44 45 -46 -48 -50 52 -53 -56 60 -62 -63 -64 67 -70 71 -72 74 -77 79 -81 -82 83 85 -88 -89 -92 95 -96 -98 -99 0
x 5 -6 -10 -11 12 14 15 -18 19 24 25 -26 -27 29 31 32 33 -34 -35 39 43 -44 45 46 48 53 56 58 -61 -63 67 -68 -72 73 74 75 -77 -78 79 -82 -83 -85 -87 92 -93 96 98 -100 0
x 3 5 -6 7 -8 10 -11 12 14 -15 17 -19 21 -26 28 -29 -32 -34 -35 -38 -41 42 -43 -47 -48 49 -52 53 55 -56 57 58 -62 63 67 68 -70 -71 -72 74 -77 -79 -81 83 -84 -85 86 87 89 94 95 99 0
x 3 -4 -5 6 -12 13 14 -18 -19 20 -22 -28 -30 31 33 -34 -36 38 -40 43 45 48 49 50 -51 54 55 56 -57 -58 59 -63 -64 -65 67 70 71 75 76 -77 81 -82 -83 -84 -86 88 90 -91 -94 -96 97 -99 0
x -1 -6 -7 -8 9 -10 -11 -12 17 -18 19 22 23 25 -26 -28 -29 31 33 -38 -40 -41 -42 45 -47 48 53 54 55 -56 57 58 -59 60 -61 63 64 65 -67 70 -71 -72 -73 -76 -77 78 -79 -82 -83 85 -86 -89 90 92 -94 -96 -99 0
g -20